
 102   30
  10   10   10   10   10   10   10   10   10   10   10   10   10   10   10   10   10   10   10   10   10   10   10   10   10   10   10   10   10   10

   0   0   0   0   0   0   0   0   0   0   0   0   0   0   0   0   0   0   0   0   0   0   0   0   0   0   0   0   0   0   0  25 2 3 4 5 6 7 8 9 10 11 12 13 14 15 16 17 18 19 20 22 23 30 31 32 37 
   6   0   0   0   2   0   0   0   0   0   1   0   0   1   0   0   1   0   0   0   0   0   0   1   0   0   0   0   0   0   0  18 73 70 63 62 60 57 56 53 52 49 48 46 45 44 42 35 29 21 
   1   0   0   0   0   1   0   0   0   0   0   0   0   0   0   0   0   0   0   1   0   0   0   0   0   0   0   0   0   0   0  18 71 69 63 62 56 55 54 52 49 45 44 42 41 38 35 34 33 26 
   4   3   5   0   0   0   0   0   0   0   0   0   0   0   0   0   0   0   0   0   0   0   0   0   0   0   0   0   0   0   1  14 99 73 72 56 53 52 51 50 48 47 46 38 28 26 
   9   0   0   0   0   4   0   3   0   0   0   0   0   0   0   0   0   1   0   0   0   0   0   5   0   0   0   0   0   0   0  18 101 98 94 73 69 66 63 62 61 59 57 56 53 50 48 46 41 24 
   5   0   0   0  10   0   0   0   0   3   0   0   0   0   0   0   0   0   0   6   0   1   0   6   0   0   0   0   0   0   0  12 98 96 73 63 59 57 53 52 42 38 28 27 
   3   0   3   0   0   0   0   0   0   0   0   2   0   0   0   5   0   0   0   0   0   0   0   7   1   0   0   0   0   2   0  15 94 90 70 67 59 57 56 54 53 52 51 48 46 38 28 
  10   0   0   0   0   7   0   0   0   0   0   0   0   0   0   0   0   0   0   5   0   0   0   0   0   4   0   0   0   4   0  15 101 100 94 89 73 70 67 63 59 51 47 43 40 38 28 
  10   0   0   0   3   0   0   0   0   0   0   0   0   0   0   0   0  10   0   0   0   0   1   0   0   0   0   0   0   0   0  17 101 100 88 70 69 67 66 62 54 53 51 49 47 43 42 40 38 
   8   0   0   0   0   4   0   0   0   0   0   5   0   0   0   0   3   8   0   0   1   6   9   0   0   0   0   0   0   0   7  14 98 95 83 71 66 63 62 61 56 54 52 38 35 26 
   4   0   0   0   0   0   0   0   0   6   0   0   0   0   0   0   0   0   0   0   0   6   0   0   0   0   0   0   0   0   0  15 101 100 94 73 70 63 59 57 56 53 48 46 45 44 29 
   1   0   0   0   0   0   1   4   0   0   0   0   0   4   0   0   0   0   2   0   8   0   0   0   5   0   0   0   0   0   0  15 89 73 72 70 69 66 62 60 57 52 50 46 42 40 36 
   7   0   0   0   0   0   0   0   6   0   0   0   0   7   0   0   0   5   0   0   0   0   0   0  10   0   0   0   0   0   0  12 99 97 92 72 65 64 63 59 49 46 39 25 
   9   4   5   0   3   0   0   0   0   0   0   0   0   0   0   0  10   0   6   0   0   0   0   0   4   0   2   0   0   0   0  15 101 100 93 88 87 71 70 69 65 62 59 49 45 43 38 
   4   0   0   0   0   5   0   0   0   0   0   0   0   0   0   0   5   0   0   0   0   0   0   0   0   0   0   0   0   0  10  17 98 96 95 94 89 88 86 72 69 61 60 59 58 53 52 45 42 
   8   0   0   0   0   0   0   0   0   0   0   0   1   0   0   0   0   0   8   0   0   0   0   0   0   0   0   0   0   7   0  15 101 100 98 97 94 82 71 68 62 59 56 53 48 44 43 
   4   0   0   0   0   0   0   0   0   0   0   0   0   0   0   0   0   0   0   0   0   0   0   0   0   0   0   0   0   0   0  13 96 95 94 89 77 73 72 65 62 56 52 47 45 
  10   0   3   0   0   0   0   0   0   0   0   0   0   0   1   0   0   5   0   0   0   0   0   0   0   0   0   0   0   0   0  19 100 98 97 93 89 88 87 86 80 79 71 70 69 66 65 64 61 51 43 
   6   0   0   0   0   0   0   0   0   0   6   0   0   7   0   3   0   0   0   0   0   0   0   6   0   0   0   0   0   0   0  16 101 96 95 94 91 88 86 80 70 69 67 66 65 63 42 40 
   4   0   0   0   0   0   7   0   3   0   0   0   2   0   0   0   0   4   0   8   4   0   7   0   0   0   4   0   1   0   0  12 100 93 90 86 72 68 67 61 56 54 51 45 
   1  10   0   1   0   6   0   0   0   0   0   0   0   6   0   0   0   0   0   0   7   0   0   0   0   0   0   0   0   0   0  18 101 99 96 95 94 88 86 84 83 80 79 69 67 66 65 61 58 40 
   6   3   0   0   0   0   0   0   0   7   0   0   0   0   0   0   4   0   0   0   0   0   0   0   0   0   0   0   4   0   0  16 100 99 96 94 90 89 86 82 67 61 60 59 58 56 52 51 
   1   0   0   0   0   0   0   0   0   0   0   0   0   0   0   2   0   0   0   8   0   0   0   0   0   0   0   0   4   0   0  15 99 98 96 92 90 88 87 85 82 61 59 58 57 53 49 
  10   0   0   0   0   6   0   0   0   0   0   0   0   0   0   0   0   0   0   0   8   0   8   0   0   0   0   4   0   0   0  13 100 96 93 91 90 89 88 87 76 70 60 51 38 
   6   0   0   0   0   0   0   7   0   0   0   0   0   0   0   0   0   0   0   0   0   0   0   0   0   7   0   7   0   0   0  15 98 96 94 93 89 88 84 81 79 70 67 66 60 58 50 
   6   0   0   0   0   0   6   0   0   0   0   0   0   0   0   0   0   0   0   0   0   0   0   5   0   8   0   0   0   0   0  19 97 96 94 92 91 89 87 86 84 82 81 79 70 68 67 65 60 58 57 
   4   0   0   0   0   9   0   0   0   0   7   0   0   0   0   0   0   0   0   0   0   0   0   0   0   0   0   0   0   0   0  18 101 100 99 94 92 91 90 85 84 83 82 81 77 67 65 64 58 48 
   4   0   0  10   0   0   0   6   0   0   0   6   0   0   0   0   0   0   0   0   6   0   0   0   4   0   0   0   0   0   0  12 95 92 88 87 71 69 65 62 61 60 58 45 
   7   4   0   0   0   0   0   7   0   0   0   3   0   0   0   0   0  10   0   0   0   0   0   0   0   0   0   0   0   0   0  12 96 93 90 88 86 81 79 72 66 61 54 51 
   6   0   0   0   0   0  10   0   0   0   0   0   0   0   0   0   0   7   0   0   7   0   7   0   0   0   0   0   0   0   0  12 98 86 85 84 83 82 72 69 64 56 54 49 
   1   0   0   0   0   0   0   0   0   0   0   0   0   0   0   0   0   0   0   0   0   7   0   0   0   0   0   0   0   0   0  16 100 94 91 90 89 88 85 84 83 82 79 78 67 65 57 52 
   1   0   0   0   0   0   0   0   0   0   0   0   0   0   0   0   0   0   0   0   0   0   0   6   0   0   0   0   0   0   0  21 101 98 97 96 94 89 86 85 84 83 81 80 79 78 77 74 69 67 66 64 63 
   5   0   0   0   0   0   0   0   0   0   6   0   0   0   8   0   0   0   0   0   3   0   0   0   0   0   0   0   0   8   0  14 98 95 94 89 88 87 86 79 78 67 66 64 59 53 
   6   0   0   0   0   0   0   0   0   0   0   0   0   0   0   0   0   0   0   0   0   0   0   0   0   0   7   0   0  10   0  16 98 96 94 91 90 89 88 86 85 83 81 79 78 76 75 60 
   4   0   0   0   0   0   0   0   0   6   0   0   0   0   0   0   0   0   0   0   0   0   0   0   0   0   0   0   0   0   0  14 101 100 94 93 90 89 86 85 81 80 79 76 64 59 
   9   0   0   0   6   0   7   5   0   0   0   0   0   0   0   0   0   0   0   0   8   0   0   0   0   0   0   0   0   7   0  14 94 92 88 87 83 82 81 79 78 77 74 71 67 64 
   9   0   0   0   0   3   3   0   0   6   0   0   0   9   5   6   0   0   0   0   0   0   0   0   0   0   0   0   0   0   0  12 100 99 91 90 86 85 84 83 82 79 65 64 
   9   0   0   6   0   0   0   0   0   0   0   0   9   4   7   7   0   0   0   0   0   0   0   0   0   0   0   0  10   0   0  10 97 86 85 82 81 79 77 68 64 58 
   1   7   9   0   0   5   0   0   0   6   0   0   0   0   0   0   0   0   5   0   0   0   5   8   0   0   0   0   0   8   0  12 95 90 88 86 84 83 82 81 79 77 75 74 
  10   0   0   0   0  10   0   0   0   0   0   0   0   7   5   0   0   0   0   0   0   6   0   0   0   0   0   0   0   5   0  10 98 97 93 92 90 85 78 77 71 64 
   2   0   0   0   0   0   7   0   0   0   0   0   0   0   0   0   0   5   0   0   0   0   0   0   0   0   0   0   0   0   0   8 99 96 93 85 84 80 76 58 
   4   0   3   0   3   0   0   8   0   0   0   0   0   0   0   0   0   0   0   0   0   0   8   0   0   0   0   0   0   6   9  10 99 87 85 83 82 81 79 78 75 74 
   1   0   0   0   0   0   0   0   0   0   0   0   0   0   0   0   0   0   0   0   0   3   0   0   0   4   0   0   5   0   6   9 96 95 92 90 81 77 76 74 72 
   3   0   0   0   0   0   0   0   0   4   0   0   0   0   0   0   0   0   0   0   9   0   8   0   8   0   0   4   0   0   0   9 95 93 88 87 85 80 78 74 67 
   6   0   0   0   0   6   0   0   0   0   0   0   0   0   0   6   0   0   0   5   0   0   0   0   0   0   0   0   0   0   0   8 97 84 83 81 80 79 66 64 
   8   0   0   0  10   0   0   0   0   0   0   0   0   0   0   0   0   0   0   4   0   0   0   7   0   0   5   0   8   0   0   9 96 84 83 82 80 79 77 75 74 
   9   7   0   0   0   0   0  10   3   0   0   0   0   0   0   0   0   0   0   0   0   0   0   0   0   4   0   0   0  10   0   9 98 90 86 85 83 79 78 76 74 
   2   0   0   0   0   0   0   0   0   0   7   0   0   0   0   0   0   6   0   5   0   0   0   0   0   0   0   0   0   0   0   8 93 89 87 86 80 78 76 74 
   2   0   0   0   0   0   5   0   0   0   5   0   0   0   0   0   0   5   0   0   0   0   0   0   0   0   0   0   7   0   0   8 95 94 89 81 80 79 77 76 
   5   0   0   0   0   0   0   0   0   0   0   0   0   0   0   0   0   0   0   0   0   0   7   5   6   0   0   0   0   6   0   7 100 91 87 86 78 74 68 
  10   0   0   0  10   0   0   0   9   0   6   0  10   0   8   0   0   3   0   0   0   0   0   0   0   0   0   0   0   0   0   7 95 92 84 83 78 77 74 
   6   0   0   0   0   0   0   0   9   0   0   0   0   0   7   0   0   0   0   0   0   0   0   0   7   0   0   0   0   0   0   6 101 93 92 87 76 74 
   5   0   0   0   0   0   0   5   0   0   0   5   0   0   0   0   0   0   0   6   7   0   0  10   0   0   0   4   0   0   0   5 91 84 83 81 65 
  10   0   0   0   0   9   0   0   0   0   0   0   0   3   0   0   0   0   0   0   0   0   0   7   0   0   0   7   0   0   0   5 99 89 80 75 65 
   4   0   0   0   0   6   0   0   0   0   0   0   0   0   0   0   9   0   0   4   0   0   0   0   0   5   5   0   0   0   0   5 86 82 77 75 74 
   4   0   0   0   0   6   0   0   0   0   0   0   0   0   0   0   0   0   6   0   4   0   0   0   0   5   0   0   0   2   0   4 88 87 81 79 
   5   4   0   0   0   0   0   0   0   0   0   0   0   0   0   0   0   0   7   0   0   0   0   0   0   0   0   0   0   0   0   3 80 77 64 
   4   0   0   0   0   0   0   0   0   0   0   0   0   0   0   0   0   0   0   4   0   0   0   0   0  10   0   7   0   0   0   3 78 75 74 
   1   0   0   0   0   0   0   0   8   0   0  10   0   0   0   0   0   0   7   0   0   0   0   0   0   4   0   0   4   0   0   3 84 77 74 
   5   0   0   0   9   9   0   3   0   0   0   0   0   0   0   0   0   5   0   5   0   0   0   0   0   0   0   0   0   0   0   2 80 77 
   7   0   0   0   0   0   0   0   0   0   0   0   0   0   0   0   0   0   0  10   6   0   0   5   6   8   0   0   0   0   0   2 78 76 
  10   9   0   0   0   0   0   0   0   0   0   0   0   0   0   0   0   0   0   0   6   7   8   0   0   0   0   0   0   0   0   2 85 76 
  10   0   0   0   0   0   0   0   0   0   0   0   0   0   9   0   0   0   0   0   0   0   0   0   0   0   6   0   8   0   0   2 90 76 
   6   0   0   0   0   0   4   0   0   0   0   0   0   0   0   0   0   0   2   0   0   0   0   0   0   0   0   0   0   0   0   1 75 
   8   4   0   5   0   4   0   0   0   0   0   0   0   8   0   8   0   0   0  10   0   0   0   0   0   0   0   0   0   0   0   1 74 
   4   0   0   0   0   0   0   0   0   0   0   0   0   0   0   4   6   0   0   0   0   0   0   0   0   0   0   0   0   0   0   1 82 
   8  10   0   6   0   0   0   0   0   5   0   0   0   9   0   0   0   0   0   0   0   0   0   0   0   0  10   0   0   0   0   1 76 
   4   8   0   0   0   0   0   0   0   0   0   0   0   0   0   0   0   0   0   0   0   0   4   0   0   0   0   0   7   0   0   1 75 
   9   0   0   0   0   0   0   0   0   0   0  10   0   0   0   0   0   9   0   0   0   0   0   0   0   0   0   0   0   0   0   1 75 
  10   7   0   0   6   0   0   0   0   0   0   0   0   0   6   9  10   0   0   5   0   0   0   0   0   0   0   5   0   0   0   1 85 
   6   0   0   0   0   0   0   0   0   0   0   0   0   0   0   0   0   0   0   0   0   0   0   0   0   0   0   0   4   0   0   1 76 
   1   0   9   0   0   0   0   0   0   0   0   0   0   0   2   8   0   0   6   0   0   0   0   0   0   0   0   0   8   0   0   1 91 
   9   0   0   0   0   0   0   0   0   6   0   0   0   0   0   0   0   0   0   0   0   7   0   0   0   0   0   0   0   0   0   1 76 
   8   0   0   0   0   0   0   0   0   0   0   0   0   0   4   0   0   0   0   0   0   0   0   0   0   0   0   0   0   0   0   1 102
   9   7   0   0   0   0   0   0   0   0   6   0   0   0   8   0   0   0   0   0   0   0   0   0   0   0   0   0   0   0   0   1 102
   2   0   0   5   0   8   0   0   0   0   0   0   0   0   0   0   0   0   0   0   0   0   0   0   5   0   0   0   0   0   0   1 102
   8   5   0   0   0   0   0   0   0   0   0   0   0   0   0   0   0   0   0   0   0   0   0   0   0   0   0   6   5   0   0   1 102
   3   0   0   0   0   0   0   0   0   0   0   0   0   0   0   0   0   0   0   0   0   0   0   0   0   0   0   0   0   0   0   1 102
  10   0   0   0   0   0   0   0   0   0   0   0   0   0   0   0   0   9   0   0   0   0   5   0   0   0   0   0   0   0   7   1 102
  10   0   0   0   6   0   0   5  10  10   0   5   0   0   9   0   0   4   0   0   0   0   5   0   0  10   7  10   0   0   0   1 102
   5   0   5   0   5   0   0   0   0   0   9   0   0   0   0   0   0   0   0  10   0   0   0   0   0   0   7   0   0   0   0   1 102
   2   0   8   0   0   0   0   0   0   0   0   0   0   8   0   0   0   0   0   0   0   0   0   0   0   0   0   0   0   0   0   1 102
   5   0   0   0   0   0   6   0   0   0   0   0   0   0   0   0   0   0   0   0   0   0   0   0   0   0   0   0   0   0   0   1 102
   2   0   0   0   0   0   0   0   0   0   0   5   0   0   0   0   0   0   4   0   0   8   0   0   0   5   0   0   0   0   0   1 102
   1   0   0   0   0   0   0   0   0   0   0   0   7   0   4   0   0   0   0   0   0   0   2   0   5   3   5   0   0   0   0   1 102
   2   0   0   0   0   0   0   9   0   5   3   0   0   0   0   0   0   0  10   0   5   0   0   0   0   0   0  10   0   0   0   1 102
   6   0   0   0   0   0   0   0   0   0   0   7   0   0   0   4   0   0   3   0   0   7   0   0   0   0   9   0   0   0   0   1 102
   6   0   0   0   0   0   9   0   8   0   6   0   0   0   0   0   0   0  10   0   0   0   0   0   7   0   0   0   0   7   0   1 102
   8   0   0   0   0   0   0   0   3   0   0   0   0   0   0   0   0   0   0   0   7   0   0   8   0   0   0   0   0   0   0   1 102
   4   0   0   0   5   0   0   0   0   0   0   0   0   0   0   0   0   0   0   0   0  10   0   0   0   0   0   0   5   0   0   1 102
   9   0   0   0   0   0   0   0   0   0   0   0   0   0   0   0   0   0   0   0   0   0   0   0   7   0   5   0  10   0   0   1 102
   3   0   0   0   0   0   0   0   0   0  10   0   0   8   0   0   0   0   0   0   0   0   6   0   0   0   0   0   0   0   0   1 102
   8   4  10   0   0   0   0   0   0   0   0   0   0   0   0   0   0   0   0   0   0   0   0   0   0   0   0   0   0   0   0   1 102
   9   0   0   0   0   0   0   0   0   0   0   0   0   0   0   6   0   0   0   0   0   0   0   4   0   0   0   5   0   0   0   1 102
   5   0   0   0   0   6   0   0   0   0   0   0   0   0   0   0   0   0   8   0   0   0   0   0   0   7   0   0   0   0   0   1 102
   7   0   0   0   0   0   0   0   0   0   0   0   0   3   0  10   0   0   0   0   0   0   0   0   0   0   0   0   6   0   2   1 102
   4   0   0   0   0   0   0   0   0   0   0   0   0   0   0   0   0   0   0   0   0   6   0   0   8   0   0   3   0   0   0   1 102
   5   0   0   0   5   0   7   0   2   0   0   0   0   0   7   0   0   0   0   0   0   0   0   0   7   0   0   6   0   0   0   1 102
   6   0   0   7   0   0   0   0   0   8   0   8   0   0   0   0   0   0   0   0   0   4   0   0   0   0   0   0   0   2   0   1 102
   7   0   0   8   7   0   0   0   0   0   0   0   7   0   0   0   0   0   0   0   0   0   0   0   0   0   0   0   0   0   0   1 102
   5   0   0   0   0   0   0   0   5   0   0   0   0   0   0   0   0   0   0   0   0   0   0   0   0   0   0   0   0   0   0   1 102
   0   0   0   0   0   0   0   0   0   0   0   0   0   0   0   0   0   0   0   0   0   0   0   0   0   0   0   0   0   0   0   0 
